p cnf 91 377
1 -42 45 46 60 -87 0
3 4 23 -50 -68 -91 0
-3 -16 -19 -23 -51 -89 0
-4 52 -63 78 82 84 0
-8 42 45 46 -60 -87 0
12 13 -31 -73 78 79 0
12 -31 57 -73 78 -79 0
-16 -19 -23 67 -89 91 0
3 4 23 -50 -91 0
4 19 -51 68 -91 0
-5 -35 36 37 -63 0
10 20 -69 -72 88 0
10 21 69 -77 88 0
-15 29 -30 57 58 0
-38 41 -54 -70 71 0
12 57 58 -73 78 -79 0
-3 -16 -19 -68 -86 0
-8 45 46 48 -55 0
11 12 26 -27 -31 0
1 3 7 59 0
1 3 24 59 0
1 10 -77 88 0
-1 -56 -59 62 0
2 24 -32 -35 0
2 -32 -35 -62 0
2 -35 -61 65 0
-2 -5 -6 61 0
3 4 -51 -91 0
3 24 -32 61 0
4 51 68 -85 0
4 -61 63 -84 0
4 -61 65 -82 0
8 9 46 -47 0
-8 -9 -45 48 0
9 46 -47 64 0
11 -14 -31 -73 0
11 -19 -27 -28 0
11 -30 -31 -80 0
-11 -14 -15 80 0
13 49 85 -86 0
-13 -66 -67 86 0
17 44 -71 -77 0
18 21 39 69 0
-18 -23 -38 -54 0
-18 -39 -48 -55 0
-19 25 30 65 0
22 41 -54 -72 0
-22 -53 70 -72 0
25 33 56 59 0
25 74 75 76 0
29 30 57 -73 0
-1 62 78 84 0
2 -35 -62 65 0
-2 -6 -65 74 0
-3 -16 -23 -86 0
4 16 23 51 0
-4 -63 -78 84 0
7 8 46 60 0
9 45 -48 -87 0
10 -21 -69 -72 0
11 12 26 34 0
12 13 -31 79 0
12 26 34 57 0
-14 58 -73 79 0
-16 -23 67 91 0
-19 -23 30 36 0
-19 -23 -40 -43 0
-19 -23 -79 84 0
21 69 70 -88 0
-38 41 -70 71 0
-38 -54 -70 72 0
40 42 83 -87 0
-49 -50 -68 -91 0
-61 65 -74 -82 0
-66 -67 -86 89 0
1 3 56 0
1 56 -62 0
-1 -8 -10 0
-1 20 41 0
-1 -24 -35 0
-2 -5 35 0
-2 -35 -65 0
-2 -36 63 0
3 -32 61 0
-3 16 50 0
-3 68 -89 0
4 32 33 0
4 -50 89 0
5 78 -84 0
-5 74 82 0
6 -36 -37 0
-6 -29 37 0
7 8 -48 0
7 45 55 0
-7 -8 -42 0
-7 -8 -45 0
-7 -45 -83 0
-7 -46 -83 0
8 9 -48 0
8 -46 -47 0
8 70 -88 0
-8 -9 -46 0
-8 -43 87 0
-8 -46 47 0
-8 -46 -64 0
-8 -53 55 0
-8 55 87 0
9 45 55 0
-9 -40 43 0
10 21 -77 0
10 42 83 0
-10 -26 57 0
-10 -70 -83 0
11 14 -79 0
11 -19 -76 0
11 -28 34 0
12 -78 -84 0
-12 78 79 0
-12 -78 -79 0
13 67 -79 0
13 67 -90 0
13 -79 84 0
13 -86 -90 0
-13 -49 68 0
15 -29 30 0
-15 -31 76 0
-15 58 -76 0
16 49 -68 0
17 19 38 0
17 23 42 0
-17 -18 -19 0
-17 -19 -40 0
-17 22 -41 0
-17 44 77 0
18 21 39 0
18 41 64 0
-18 -19 -69 0
-18 -38 -64 0
19 -30 32 0
19 -33 -65 0
19 -36 -80 0
19 -50 85 0
19 51 -68 0
-19 -27 -33 0
-19 -41 -44 0
-19 -41 -48 0
-19 43 -44 0
-19 -43 44 0
-19 58 79 0
-19 58 -79 0
-19 -81 -85 0
-19 -86 89 0
20 53 71 0
20 -72 88 0
-20 -22 70 0
-20 69 70 0
-20 70 77 0
22 -44 71 0
-22 70 -71 0
23 -30 -80 0
23 39 41 0
23 39 60 0
23 -65 74 0
-23 57 80 0
24 35 59 0
24 35 -59 0
-25 -27 -56 0
-25 -33 -34 0
26 -34 57 0
27 31 34 0
27 -31 57 0
27 -34 -57 0
-28 31 34 0
29 58 -73 0
32 -56 61 0
-33 37 62 0
36 -37 63 0
-36 37 63 0
38 39 40 0
39 45 60 0
-39 -60 -69 0
40 43 87 0
-42 46 83 0
46 47 -54 0
-46 -47 -64 0
50 -66 89 0
52 62 -84 0
57 58 -80 0
58 76 -80 0
-58 -76 -80 0
65 76 80 0
66 67 -89 0
66 86 -90 0
66 -86 90 0
-66 86 -89 0
-66 -86 -90 0
68 90 -91 0
-69 70 -77 0
74 -75 76 0
1 24 0
1 27 0
1 32 0
1 -52 0
1 60 0
1 -60 0
1 -62 0
1 68 0
1 -77 0
-1 -3 0
-1 -12 0
-1 84 0
-1 -90 0
2 5 0
2 6 0
2 24 0
2 -61 0
-2 -36 0
-2 78 0
3 -13 0
3 16 0
3 17 0
3 35 0
3 56 0
3 -56 0
3 89 0
-3 -4 0
-3 13 0
-3 50 0
-3 -51 0
4 17 0
4 49 0
4 -52 0
4 61 0
4 63 0
4 64 0
4 65 0
4 -78 0
4 -82 0
4 -85 0
4 -89 0
-4 -16 0
-4 70 0
-4 -84 0
-4 91 0
5 -52 0
5 -62 0
5 63 0
5 -78 0
-5 52 0
-5 59 0
-5 78 0
-5 -80 0
6 35 0
6 -36 0
6 -37 0
6 -82 0
-6 -59 0
-6 62 0
-6 65 0
-6 -74 0
7 42 0
7 45 0
7 46 0
7 -55 0
7 64 0
-7 -46 0
-7 -60 0
-7 87 0
8 -19 0
8 -45 0
8 -46 0
8 -60 0
8 70 0
-8 47 0
-8 -64 0
-8 88 0
-8 -88 0
9 40 0
9 55 0
9 -55 0
9 -89 0
10 11 0
10 22 0
10 -27 0
10 42 0
10 49 0
10 -57 0
10 -60 0
10 -70 0
10 83 0
10 90 0
-10 -11 0
-10 -12 0
-10 24 0
-10 27 0
-10 -27 0
-10 -70 0
-10 -88 0
11 12 0
11 15 0
11 -73 0
11 -79 0
-11 13 0
-11 -57 0
-11 76 0
-11 -76 0
12 -27 0
12 58 0
-12 -13 0
-12 -29 0
-12 35 0
-12 -57 0
-12 73 0
13 -27 0
13 34 0
13 -73 0
13 84 0
13 -84 0
13 85 0
13 91 0
-13 57 0
-13 -68 0
-13 -85 0
-13 90 0
14 -29 0
14 31 0
14 -57 0
14 -58 0
14 79 0
-14 -17 0
-14 57 0
-14 73 0
15 31 0
15 57 0
15 -57 0
15 -58 0
-16 -49 0
-16 -50 0
-16 -51 0
-16 59 0
-16 -85 0
17 18 0
17 -44 0
17 45 0
17 -70 0
17 77 0
-17 -40 0
-17 -41 0
18 54 0
-18 -23 0
-18 -64 0
-18 81 0
19 47 0
19 54 0
19 59 0
19 64 0
19 -67 0
19 69 0
19 75 0
19 -76 0
-19 -21 0
-19 31 0
-19 -32 0
-19 -34 0
-19 -48 0
-19 -52 0
-19 79 0
-19 81 0
-19 85 0
-19 86 0
20 -69 0
-20 -21 0
-20 -22 0
21 23 0
21 88 0
21 -88 0
-21 42 0
